QPLIB_3838
QBB
maximize
780 # number of variables
1520 # number of quadratic terms in objective
2 1 4.0
95 1 -4.0
392 1 -4.0
393 1 4.0
110 2 -4.0
345 2 4.0
412 2 -4.0
105 3 -4.0
357 3 -4.0
431 3 4.0
484 3 4.0
46 4 4.0
378 4 -4.0
593 4 4.0
631 4 -4.0
6 5 -4.0
353 5 4.0
569 5 -4.0
606 5 4.0
47 6 -4.0
444 6 4.0
685 6 4.0
406 7 4.0
454 7 4.0
455 7 -4.0
509 7 -4.0
17 8 4.0
305 8 -4.0
673 8 -4.0
722 8 4.0
10 9 -4.0
369 9 4.0
536 9 -4.0
643 9 4.0
56 10 -4.0
421 10 4.0
733 10 4.0
77 11 -4.0
370 11 4.0
479 11 4.0
505 11 -4.0
46 12 -4.0
306 12 -4.0
557 12 4.0
777 12 4.0
89 13 -4.0
354 13 4.0
447 13 4.0
538 13 -4.0
15 14 4.0
157 14 -4.0
511 14 -4.0
755 14 4.0
107 15 4.0
310 15 -4.0
315 15 -4.0
307 16 -4.0
378 16 -4.0
595 16 4.0
724 16 4.0
307 17 -4.0
528 17 4.0
598 17 -4.0
129 18 -4.0
420 18 -4.0
443 18 4.0
683 18 4.0
101 19 -4.0
343 19 4.0
425 19 4.0
572 19 -4.0
104 20 4.0
355 20 4.0
577 20 -4.0
612 20 -4.0
22 21 4.0
23 21 -4.0
135 21 4.0
658 21 -4.0
309 22 -4.0
313 22 -4.0
584 22 4.0
134 23 4.0
313 23 -4.0
546 23 4.0
232 24 4.0
720 24 -4.0
772 24 4.0
775 24 -4.0
26 25 4.0
306 25 -4.0
497 25 4.0
635 25 -4.0
775 26 4.0
776 26 -4.0
779 26 -4.0
369 27 -4.0
401 27 -4.0
473 27 4.0
639 27 4.0
91 28 4.0
356 28 -4.0
371 28 4.0
451 28 -4.0
30 29 4.0
31 29 -4.0
122 29 4.0
619 29 -4.0
52 30 -4.0
311 30 -4.0
618 30 4.0
145 31 4.0
315 31 -4.0
583 31 4.0
33 32 4.0
74 32 -4.0
517 32 4.0
621 32 -4.0
80 33 -4.0
122 33 -4.0
123 33 4.0
174 34 4.0
220 34 4.0
722 34 -4.0
773 34 -4.0
36 35 4.0
307 35 -4.0
470 35 4.0
675 35 -4.0
722 36 4.0
723 36 -4.0
726 36 -4.0
353 37 -4.0
383 37 -4.0
500 37 4.0
602 37 4.0
371 38 -4.0
384 38 4.0
691 38 4.0
739 38 -4.0
372 39 -4.0
384 39 4.0
428 39 -4.0
540 39 4.0
41 40 4.0
409 40 -4.0
655 40 4.0
749 40 -4.0
338 41 -4.0
386 41 -4.0
544 41 4.0
43 42 -4.0
108 42 4.0
585 42 -4.0
655 42 4.0
156 43 4.0
317 43 -4.0
617 43 4.0
45 44 4.0
82 44 -4.0
549 44 4.0
586 44 -4.0
93 45 -4.0
108 45 -4.0
708 45 4.0
209 46 4.0
463 46 -4.0
368 47 -4.0
532 47 4.0
566 47 4.0
49 48 4.0
152 48 -4.0
236 48 4.0
308 48 -4.0
503 49 -4.0
534 49 4.0
568 49 -4.0
236 50 -4.0
302 50 4.0
343 50 4.0
646 50 -4.0
385 51 -4.0
403 51 4.0
429 51 -4.0
578 51 4.0
53 52 4.0
63 52 4.0
432 52 -4.0
276 53 4.0
333 53 -4.0
374 53 -4.0
434 54 -4.0
547 54 -4.0
588 54 4.0
757 54 4.0
148 55 4.0
519 55 -4.0
549 55 -4.0
588 55 4.0
352 56 -4.0
533 56 4.0
565 56 4.0
58 57 4.0
225 57 4.0
312 57 -4.0
689 57 -4.0
476 58 -4.0
501 58 4.0
535 58 -4.0
225 59 -4.0
299 59 4.0
354 59 4.0
609 59 -4.0
404 60 -4.0
426 60 4.0
452 60 -4.0
611 60 4.0
206 61 4.0
357 61 -4.0
611 61 4.0
612 61 -4.0
281 62 4.0
309 62 4.0
328 62 -4.0
358 62 -4.0
309 63 -4.0
704 63 4.0
754 63 -4.0
65 64 4.0
411 64 -4.0
515 64 -4.0
624 64 4.0
80 65 4.0
316 65 -4.0
410 65 -4.0
137 66 4.0
517 66 -4.0
551 66 -4.0
624 66 4.0
68 67 4.0
214 67 4.0
314 67 -4.0
737 67 -4.0
445 68 -4.0
475 68 4.0
502 68 -4.0
427 69 -4.0
449 69 4.0
482 69 -4.0
649 69 4.0
194 70 4.0
541 70 -4.0
578 70 -4.0
649 70 4.0
289 71 4.0
310 71 4.0
324 71 -4.0
344 71 -4.0
359 72 4.0
546 72 4.0
621 72 -4.0
657 72 -4.0
74 73 -4.0
124 73 4.0
589 73 -4.0
662 73 4.0
207 74 4.0
488 74 4.0
244 75 -4.0
269 75 -4.0
308 75 4.0
566 75 4.0
153 76 4.0
423 76 -4.0
641 76 4.0
686 76 -4.0
385 77 -4.0
539 77 4.0
742 77 4.0
187 78 4.0
540 78 -4.0
579 78 -4.0
696 78 4.0
295 79 4.0
311 79 4.0
322 79 -4.0
338 79 -4.0
121 80 4.0
618 80 -4.0
82 81 -4.0
112 81 4.0
626 81 -4.0
709 81 4.0
218 82 4.0
459 82 4.0
84 83 4.0
464 83 -4.0
671 83 4.0
723 83 -4.0
266 84 4.0
438 84 -4.0
592 84 -4.0
86 85 -4.0
87 85 4.0
679 85 4.0
682 85 -4.0
222 86 -4.0
233 86 4.0
234 86 4.0
234 87 -4.0
602 87 4.0
640 87 -4.0
162 88 4.0
445 88 -4.0
685 88 4.0
734 88 -4.0
404 89 -4.0
506 89 4.0
693 89 4.0
91 90 -4.0
430 90 4.0
613 90 -4.0
745 90 4.0
217 91 -4.0
508 91 4.0
119 92 -4.0
313 92 4.0
333 92 -4.0
751 92 4.0
107 93 4.0
584 93 -4.0
757 93 4.0
434 94 -4.0
664 94 4.0
665 94 -4.0
761 94 4.0
138 95 4.0
553 95 -4.0
664 95 4.0
97 96 4.0
492 96 -4.0
633 96 4.0
776 96 -4.0
259 97 4.0
415 97 -4.0
555 97 -4.0
99 98 -4.0
100 98 4.0
728 98 4.0
731 98 -4.0
210 99 -4.0
242 99 4.0
243 99 4.0
243 100 -4.0
603 100 -4.0
639 100 4.0
427 101 -4.0
480 101 4.0
647 101 4.0
103 102 4.0
104 102 -4.0
405 102 4.0
651 102 -4.0
481 103 4.0
507 103 -4.0
648 103 -4.0
205 104 -4.0
238 104 4.0
106 105 4.0
654 105 4.0
749 105 -4.0
257 106 4.0
405 106 -4.0
698 106 -4.0
277 107 -4.0
545 107 -4.0
165 108 4.0
515 108 -4.0
110 109 4.0
411 109 -4.0
711 109 4.0
712 109 -4.0
136 110 4.0
708 110 -4.0
112 111 -4.0
125 111 4.0
394 111 -4.0
711 111 4.0
239 112 -4.0
766 112 4.0
251 113 4.0
396 113 -4.0
522 113 -4.0
595 113 4.0
201 114 4.0
352 114 -4.0
565 114 4.0
678 114 -4.0
201 115 -4.0
252 115 4.0
253 115 4.0
565 115 -4.0
213 116 -4.0
253 116 -4.0
565 116 4.0
683 116 4.0
118 117 4.0
163 117 4.0
451 117 -4.0
698 117 -4.0
483 118 -4.0
610 118 -4.0
743 118 4.0
120 119 4.0
652 119 -4.0
700 119 4.0
163 120 -4.0
247 120 4.0
651 120 -4.0
511 121 4.0
512 121 -4.0
514 121 -4.0
487 122 -4.0
703 122 4.0
278 123 -4.0
390 123 4.0
660 123 -4.0
319 124 -4.0
435 124 -4.0
713 124 4.0
319 125 -4.0
347 125 4.0
362 125 -4.0
241 126 4.0
377 126 -4.0
491 126 -4.0
557 126 4.0
190 127 4.0
368 127 -4.0
532 127 4.0
636 127 -4.0
190 128 -4.0
260 128 4.0
261 128 4.0
532 128 -4.0
130 129 4.0
567 129 4.0
734 129 -4.0
224 130 -4.0
261 130 -4.0
532 130 4.0
143 131 4.0
610 131 -4.0
692 131 4.0
741 131 -4.0
133 132 4.0
154 132 4.0
428 132 -4.0
747 132 -4.0
143 133 -4.0
453 133 -4.0
694 133 4.0
749 134 4.0
750 134 -4.0
752 134 -4.0
458 135 -4.0
621 135 -4.0
753 135 4.0
282 136 -4.0
621 136 4.0
622 136 -4.0
320 137 -4.0
459 137 -4.0
666 137 4.0
320 138 -4.0
340 138 4.0
376 138 -4.0
231 139 4.0
363 139 -4.0
462 139 -4.0
524 139 4.0
183 140 4.0
383 140 -4.0
500 140 4.0
599 140 -4.0
183 141 -4.0
267 141 4.0
268 141 4.0
500 141 -4.0
235 142 -4.0
268 142 -4.0
369 142 4.0
500 142 4.0
292 143 4.0
577 143 -4.0
324 144 4.0
357 144 4.0
431 144 -4.0
579 144 -4.0
700 145 4.0
701 145 -4.0
702 145 -4.0
229 146 -4.0
291 146 -4.0
586 146 4.0
761 146 4.0
323 147 4.0
375 147 -4.0
488 147 4.0
763 147 -4.0
283 148 4.0
323 148 -4.0
488 148 -4.0
219 149 4.0
348 149 -4.0
438 149 -4.0
493 149 4.0
176 150 4.0
401 150 -4.0
473 150 4.0
563 150 -4.0
244 151 -4.0
353 151 4.0
473 151 4.0
474 151 -4.0
153 152 4.0
448 152 -4.0
608 152 4.0
299 153 -4.0
735 153 -4.0
155 154 4.0
373 154 -4.0
483 154 -4.0
328 155 4.0
406 155 -4.0
541 155 -4.0
290 156 -4.0
654 156 4.0
656 156 -4.0
195 157 4.0
547 157 -4.0
706 157 4.0
325 158 4.0
361 158 -4.0
518 158 4.0
710 158 -4.0
167 159 -4.0
415 159 -4.0
465 159 4.0
721 159 4.0
175 160 4.0
326 160 -4.0
417 160 4.0
440 160 -4.0
169 161 4.0
420 161 -4.0
443 161 4.0
530 161 -4.0
302 162 -4.0
402 162 4.0
687 162 -4.0
164 163 4.0
507 163 -4.0
206 164 -4.0
333 164 4.0
386 164 -4.0
409 165 -4.0
659 165 4.0
752 165 -4.0
329 166 4.0
346 166 -4.0
550 166 4.0
663 166 -4.0
168 167 4.0
330 167 -4.0
772 167 4.0
363 168 -4.0
436 168 4.0
489 168 -4.0
499 169 -4.0
227 170 -4.0
285 170 4.0
449 170 4.0
539 170 -4.0
280 171 -4.0
287 171 -4.0
405 171 4.0
745 171 4.0
194 172 -4.0
338 172 4.0
374 172 -4.0
405 172 4.0
182 173 4.0
334 173 4.0
339 173 -4.0
625 173 -4.0
348 174 4.0
377 174 -4.0
378 174 -4.0
336 175 -4.0
472 176 -4.0
536 177 -4.0
606 177 4.0
640 177 4.0
732 177 -4.0
215 178 -4.0
279 178 4.0
426 178 4.0
506 178 -4.0
426 179 4.0
427 179 -4.0
429 179 -4.0
696 179 4.0
286 180 -4.0
293 180 -4.0
430 180 4.0
696 180 4.0
187 181 -4.0
344 181 4.0
358 181 -4.0
430 181 4.0
291 182 -4.0
588 182 4.0
589 182 -4.0
478 184 4.0
569 184 4.0
570 184 -4.0
572 184 -4.0
203 185 -4.0
275 185 4.0
403 185 4.0
480 185 -4.0
403 186 4.0
404 186 -4.0
428 186 -4.0
649 186 4.0
188 187 4.0
614 187 -4.0
292 188 -4.0
300 188 -4.0
649 188 4.0
486 189 4.0
585 189 -4.0
616 189 -4.0
755 189 4.0
192 191 4.0
445 191 4.0
448 191 -4.0
506 191 -4.0
255 192 -4.0
536 192 4.0
538 192 -4.0
384 193 4.0
385 193 -4.0
451 193 -4.0
611 193 4.0
580 194 -4.0
650 194 4.0
512 195 4.0
582 195 -4.0
619 195 -4.0
258 196 4.0
412 196 -4.0
517 196 4.0
706 196 -4.0
198 197 4.0
199 197 -4.0
200 197 4.0
349 197 -4.0
231 198 4.0
397 198 -4.0
774 198 -4.0
241 199 4.0
378 199 4.0
416 199 -4.0
364 200 -4.0
366 200 4.0
381 200 -4.0
203 202 -4.0
423 202 4.0
504 202 4.0
539 202 -4.0
204 203 4.0
478 203 4.0
371 204 4.0
427 204 -4.0
690 204 -4.0
371 205 4.0
372 205 -4.0
578 205 4.0
542 206 -4.0
697 206 4.0
391 207 -4.0
516 207 4.0
660 207 -4.0
219 208 4.0
364 208 4.0
379 208 -4.0
721 208 -4.0
251 209 4.0
364 209 -4.0
439 209 -4.0
728 210 4.0
212 211 4.0
213 211 4.0
422 211 -4.0
474 211 -4.0
728 212 4.0
729 212 -4.0
731 212 -4.0
568 213 -4.0
685 213 4.0
215 214 -4.0
477 214 4.0
574 214 -4.0
216 215 4.0
446 215 4.0
355 216 4.0
404 216 -4.0
645 216 -4.0
355 217 4.0
356 217 -4.0
540 217 4.0
411 218 -4.0
548 218 4.0
622 218 -4.0
670 219 -4.0
671 219 -4.0
259 220 4.0
379 220 -4.0
468 220 -4.0
679 221 4.0
680 221 -4.0
679 222 4.0
601 223 4.0
679 223 4.0
680 223 -4.0
682 223 -4.0
535 224 -4.0
601 224 4.0
641 224 4.0
226 225 4.0
227 225 -4.0
269 226 4.0
447 226 -4.0
644 226 -4.0
228 227 4.0
424 227 4.0
356 228 4.0
385 228 -4.0
608 228 -4.0
272 229 -4.0
360 229 4.0
585 229 4.0
667 230 4.0
764 230 4.0
765 230 -4.0
768 230 -4.0
632 231 -4.0
633 231 -4.0
266 232 4.0
397 232 -4.0
495 232 -4.0
637 233 -4.0
637 234 -4.0
638 234 4.0
502 235 -4.0
604 235 4.0
638 235 4.0
237 236 4.0
573 236 -4.0
262 237 4.0
425 237 -4.0
607 237 -4.0
482 238 -4.0
484 238 -4.0
613 238 4.0
411 239 4.0
412 239 -4.0
711 239 4.0
711 240 4.0
712 240 -4.0
714 240 4.0
715 240 -4.0
594 241 -4.0
596 241 -4.0
600 242 -4.0
600 243 -4.0
681 243 4.0
567 244 4.0
681 244 4.0
255 245 4.0
570 245 -4.0
689 245 4.0
737 245 -4.0
451 246 4.0
452 246 -4.0
454 246 -4.0
651 246 4.0
388 247 4.0
748 247 -4.0
750 247 -4.0
249 248 4.0
387 248 4.0
388 248 -4.0
457 248 -4.0
510 249 -4.0
617 249 -4.0
703 249 4.0
664 250 4.0
665 250 -4.0
668 250 -4.0
767 250 4.0
556 251 -4.0
558 251 -4.0
564 252 -4.0
564 253 -4.0
730 253 4.0
444 254 -4.0
475 254 -4.0
534 254 4.0
730 254 4.0
534 255 4.0
535 255 -4.0
428 256 4.0
429 256 -4.0
698 256 4.0
747 256 -4.0
408 257 4.0
699 257 -4.0
701 257 -4.0
277 258 4.0
659 258 -4.0
661 258 -4.0
523 259 -4.0
525 259 -4.0
531 260 -4.0
421 261 4.0
531 261 -4.0
501 262 4.0
502 262 -4.0
504 262 -4.0
290 263 -4.0
433 263 4.0
652 263 4.0
653 263 -4.0
272 264 4.0
620 264 -4.0
707 264 -4.0
759 264 4.0
435 265 4.0
759 265 4.0
760 265 -4.0
763 265 -4.0
492 266 -4.0
494 266 -4.0
499 267 -4.0
444 268 4.0
499 268 -4.0
475 269 4.0
477 269 -4.0
450 270 4.0
740 270 4.0
741 270 -4.0
744 270 -4.0
296 271 -4.0
456 271 4.0
614 271 4.0
615 271 -4.0
583 272 4.0
584 272 -4.0
459 273 4.0
707 273 4.0
708 273 -4.0
710 273 -4.0
472 274 4.0
729 274 -4.0
481 275 4.0
692 275 -4.0
695 275 -4.0
486 276 -4.0
582 276 -4.0
750 276 4.0
546 277 4.0
548 277 -4.0
488 278 4.0
661 278 4.0
663 278 -4.0
646 279 -4.0
648 279 -4.0
743 279 4.0
508 280 4.0
743 280 4.0
744 280 -4.0
512 281 -4.0
616 281 -4.0
701 281 4.0
518 282 4.0
623 282 4.0
625 282 -4.0
284 283 4.0
519 283 -4.0
628 283 -4.0
521 284 4.0
591 284 -4.0
713 284 -4.0
609 285 -4.0
610 285 -4.0
694 285 4.0
694 286 4.0
695 286 -4.0
746 286 4.0
543 287 4.0
746 287 4.0
748 287 -4.0
290 288 4.0
542 288 4.0
543 288 -4.0
701 288 -4.0
290 289 4.0
545 289 -4.0
656 289 -4.0
550 291 4.0
587 291 4.0
648 292 -4.0
697 292 4.0
581 293 4.0
697 293 4.0
699 293 -4.0
296 294 4.0
580 294 4.0
581 294 -4.0
750 294 -4.0
296 295 4.0
582 295 -4.0
702 295 -4.0
751 296 -4.0
298 297 4.0
598 297 -4.0
304 298 -4.0
778 298 4.0
779 298 -4.0
736 299 4.0
739 299 -4.0
615 300 4.0
650 300 4.0
653 300 -4.0
635 301 -4.0
780 301 4.0
688 302 4.0
691 302 -4.0
670 303 4.0
769 303 4.0
770 303 -4.0
773 303 -4.0
780 304 4.0
307 305 -4.0
465 305 4.0
466 305 -4.0
673 306 -4.0
775 306 4.0
327 308 -4.0
423 308 -4.0
407 309 -4.0
387 310 -4.0
655 310 -4.0
388 311 -4.0
511 311 -4.0
537 312 -4.0
567 312 4.0
605 312 -4.0
408 313 -4.0
571 314 -4.0
604 314 4.0
642 314 -4.0
433 315 -4.0
654 315 4.0
583 316 4.0
586 316 -4.0
704 316 -4.0
456 317 -4.0
511 317 -4.0
700 317 4.0
547 318 -4.0
617 318 4.0
754 318 -4.0
757 318 -4.0
413 319 -4.0
764 319 4.0
345 320 4.0
436 320 -4.0
331 321 -4.0
676 321 -4.0
373 322 4.0
614 322 -4.0
749 322 -4.0
394 323 -4.0
460 323 -4.0
580 324 -4.0
700 324 -4.0
413 325 -4.0
489 325 -4.0
519 325 -4.0
341 326 -4.0
422 327 -4.0
569 327 -4.0
684 327 4.0
542 328 -4.0
654 328 -4.0
436 329 -4.0
520 329 -4.0
551 329 -4.0
377 330 -4.0
413 330 4.0
520 330 -4.0
332 331 -4.0
398 331 4.0
469 331 -4.0
350 332 -4.0
543 333 -4.0
460 334 -4.0
552 334 -4.0
589 334 -4.0
348 335 -4.0
394 335 4.0
396 335 -4.0
552 335 -4.0
337 336 -4.0
380 336 4.0
496 336 -4.0
366 337 -4.0
581 338 -4.0
489 339 -4.0
590 339 -4.0
626 339 -4.0
363 340 -4.0
415 340 -4.0
590 340 -4.0
342 341 -4.0
365 341 4.0
527 341 -4.0
381 342 -4.0
355 343 -4.0
403 343 4.0
432 344 -4.0
615 344 -4.0
393 345 -4.0
459 345 4.0
520 346 -4.0
627 346 -4.0
665 346 -4.0
377 347 -4.0
438 347 -4.0
627 347 -4.0
716 348 -4.0
350 349 4.0
379 349 -4.0
399 349 -4.0
351 350 -4.0
560 350 -4.0
399 351 -4.0
601 352 4.0
680 352 -4.0
641 353 4.0
356 354 -4.0
426 354 4.0
453 357 -4.0
407 358 -4.0
653 358 -4.0
360 359 -4.0
389 359 -4.0
514 359 -4.0
390 360 -4.0
434 360 -4.0
552 361 -4.0
667 361 -4.0
712 361 -4.0
396 362 -4.0
462 362 -4.0
667 362 -4.0
463 363 -4.0
365 364 -4.0
397 365 -4.0
418 365 -4.0
367 366 -4.0
778 366 -4.0
418 367 -4.0
637 368 -4.0
638 368 4.0
604 369 4.0
372 370 -4.0
449 370 4.0
574 370 4.0
575 372 -4.0
455 373 -4.0
613 373 -4.0
387 374 -4.0
699 374 -4.0
590 375 -4.0
714 375 -4.0
765 375 -4.0
415 376 -4.0
491 376 -4.0
714 376 -4.0
380 379 -4.0
416 380 -4.0
441 380 -4.0
382 381 -4.0
725 381 -4.0
441 382 -4.0
600 383 -4.0
681 383 4.0
740 384 4.0
388 386 -4.0
748 386 -4.0
455 387 -4.0
391 389 -4.0
487 389 -4.0
662 389 4.0
392 390 -4.0
762 390 -4.0
392 391 -4.0
762 391 -4.0
664 392 -4.0
627 393 -4.0
767 393 -4.0
395 394 -4.0
438 395 -4.0
522 395 -4.0
767 395 -4.0
772 396 -4.0
398 397 -4.0
439 398 -4.0
470 398 -4.0
400 399 -4.0
674 399 -4.0
470 400 -4.0
564 401 -4.0
730 401 4.0
571 402 4.0
573 402 4.0
645 402 -4.0
408 406 -4.0
432 406 -4.0
431 407 -4.0
485 407 4.0
485 408 -4.0
485 409 -4.0
513 409 -4.0
412 410 -4.0
458 410 -4.0
709 410 4.0
414 413 -4.0
462 414 -4.0
555 414 -4.0
768 414 4.0
417 416 -4.0
467 416 -4.0
468 417 -4.0
497 417 -4.0
419 418 -4.0
726 418 -4.0
497 419 -4.0
421 420 4.0
531 420 -4.0
422 421 -4.0
501 422 -4.0
425 423 -4.0
537 424 4.0
688 424 4.0
690 424 -4.0
690 425 -4.0
453 429 -4.0
652 430 -4.0
433 431 -4.0
510 432 4.0
510 433 -4.0
435 434 4.0
764 435 4.0
437 436 -4.0
491 437 -4.0
592 437 -4.0
715 437 4.0
440 439 -4.0
494 439 -4.0
495 440 -4.0
528 440 -4.0
442 441 -4.0
779 441 -4.0
528 442 -4.0
444 443 4.0
499 443 -4.0
447 445 -4.0
503 446 4.0
736 446 4.0
738 446 -4.0
738 447 -4.0
575 448 -4.0
740 448 4.0
450 449 4.0
452 450 -4.0
745 450 4.0
483 452 -4.0
454 453 -4.0
614 454 -4.0
456 455 -4.0
544 456 -4.0
544 457 -4.0
583 457 -4.0
753 457 4.0
585 458 -4.0
707 458 4.0
461 460 -4.0
716 460 -4.0
522 461 -4.0
630 461 -4.0
668 461 4.0
464 462 -4.0
466 463 -4.0
719 463 -4.0
466 464 -4.0
630 464 -4.0
467 465 4.0
670 465 -4.0
467 466 -4.0
526 467 -4.0
469 468 -4.0
525 468 -4.0
526 469 -4.0
561 469 -4.0
471 470 -4.0
561 471 -4.0
473 472 -4.0
474 472 -4.0
729 474 -4.0
602 475 4.0
478 476 4.0
479 476 -4.0
643 476 -4.0
479 477 -4.0
687 477 -4.0
480 478 -4.0
480 479 -4.0
482 481 -4.0
742 481 4.0
507 482 -4.0
484 483 -4.0
580 484 -4.0
486 485 -4.0
546 486 -4.0
619 487 -4.0
661 487 4.0
490 489 -4.0
555 490 -4.0
628 490 4.0
669 490 -4.0
492 491 -4.0
669 492 -4.0
494 493 4.0
632 493 -4.0
775 493 4.0
559 494 -4.0
496 495 -4.0
558 495 -4.0
559 496 -4.0
598 496 -4.0
498 497 -4.0
598 498 -4.0
639 501 4.0
533 502 4.0
505 503 -4.0
606 503 -4.0
505 504 -4.0
735 504 -4.0
506 505 -4.0
509 507 -4.0
509 508 -4.0
579 508 4.0
542 509 -4.0
512 510 -4.0
514 513 -4.0
545 513 4.0
658 513 -4.0
516 514 -4.0
623 515 4.0
658 515 -4.0
623 516 -4.0
705 516 -4.0
518 517 4.0
519 518 -4.0
521 520 -4.0
592 521 -4.0
718 521 -4.0
523 522 -4.0
595 523 -4.0
718 523 -4.0
525 524 4.0
594 524 -4.0
722 524 4.0
597 525 -4.0
527 526 -4.0
596 526 -4.0
597 527 -4.0
635 527 -4.0
529 528 -4.0
635 529 -4.0
531 530 -4.0
535 533 -4.0
731 533 4.0
683 534 4.0
571 536 -4.0
538 537 -4.0
569 537 -4.0
539 538 -4.0
746 540 4.0
543 541 -4.0
746 541 4.0
545 544 -4.0
587 547 4.0
587 548 -4.0
756 548 -4.0
550 549 4.0
759 549 4.0
551 550 -4.0
666 551 -4.0
554 552 -4.0
554 553 -4.0
666 553 -4.0
716 553 -4.0
630 554 -4.0
771 554 -4.0
556 555 -4.0
557 556 -4.0
771 556 -4.0
558 557 4.0
634 558 -4.0
560 559 -4.0
633 559 -4.0
634 560 -4.0
675 560 -4.0
562 561 -4.0
673 561 4.0
675 562 -4.0
564 563 -4.0
568 566 -4.0
682 566 4.0
570 567 4.0
570 568 -4.0
572 571 -4.0
574 572 -4.0
575 573 -4.0
576 573 -4.0
576 574 -4.0
577 575 -4.0
577 576 -4.0
742 576 4.0
697 578 4.0
581 579 -4.0
584 582 -4.0
755 586 -4.0
709 587 4.0
707 588 4.0
713 589 -4.0
591 590 -4.0
593 591 -4.0
669 591 -4.0
594 592 -4.0
594 593 -4.0
717 593 -4.0
596 595 4.0
672 596 -4.0
671 597 -4.0
778 597 -4.0
600 599 -4.0
603 601 -4.0
605 602 -4.0
605 603 -4.0
733 603 4.0
607 604 4.0
607 605 -4.0
736 606 4.0
736 607 -4.0
609 608 -4.0
689 608 -4.0
693 609 4.0
612 610 -4.0
650 611 4.0
650 612 -4.0
615 613 -4.0
618 616 -4.0
751 616 -4.0
620 617 4.0
620 618 -4.0
622 619 4.0
622 620 -4.0
662 623 4.0
625 624 4.0
661 624 4.0
626 625 -4.0
766 626 -4.0
629 627 -4.0
629 628 -4.0
766 628 -4.0
631 629 -4.0
718 629 -4.0
632 630 -4.0
632 631 -4.0
770 631 -4.0
724 633 -4.0
723 634 -4.0
725 634 -4.0
637 636 -4.0
640 638 -4.0
642 639 -4.0
642 640 -4.0
644 641 4.0
644 642 -4.0
688 643 4.0
733 643 4.0
688 644 -4.0
646 645 -4.0
737 645 -4.0
647 646 4.0
648 647 -4.0
694 647 4.0
653 651 -4.0
747 652 -4.0
657 655 4.0
657 656 -4.0
753 656 -4.0
659 657 -4.0
660 658 4.0
660 659 -4.0
663 662 4.0
665 663 -4.0
668 666 -4.0
769 667 -4.0
769 668 -4.0
670 669 -4.0
777 671 -4.0
674 672 -4.0
776 672 -4.0
778 672 -4.0
676 673 -4.0
676 674 -4.0
777 674 -4.0
677 675 -4.0
677 676 -4.0
680 678 -4.0
684 681 -4.0
684 682 -4.0
686 683 -4.0
686 684 -4.0
687 685 4.0
687 686 -4.0
691 689 -4.0
692 690 -4.0
692 691 -4.0
695 693 -4.0
743 693 4.0
745 695 -4.0
744 696 -4.0
699 698 -4.0
703 702 -4.0
704 702 -4.0
705 703 4.0
705 704 -4.0
706 705 -4.0
708 706 -4.0
710 709 4.0
712 710 -4.0
715 713 -4.0
717 714 -4.0
717 715 -4.0
719 716 -4.0
719 717 -4.0
720 718 -4.0
720 719 -4.0
721 720 -4.0
723 721 -4.0
725 724 -4.0
726 724 -4.0
780 725 4.0
780 726 -4.0
728 727 -4.0
729 727 -4.0
732 730 -4.0
732 731 -4.0
734 732 -4.0
735 733 4.0
735 734 -4.0
739 737 -4.0
740 738 -4.0
741 738 -4.0
741 739 -4.0
744 742 -4.0
748 747 -4.0
752 751 -4.0
754 752 -4.0
756 753 4.0
756 754 -4.0
758 755 4.0
758 756 -4.0
760 757 4.0
759 758 -4.0
760 758 -4.0
761 760 -4.0
763 761 4.0
764 762 4.0
765 762 -4.0
765 763 -4.0
768 766 -4.0
770 767 -4.0
770 768 -4.0
771 769 -4.0
773 771 -4.0
774 772 4.0
774 773 -4.0
776 774 -4.0
779 777 -4.0
0.0 # default value for linear coefficients in objective
476 # number of non-default linear coefficients in objective
305 2.0
306 2.0
307 4.0
308 2.0
309 2.0
310 2.0
311 2.0
312 2.0
313 2.0
314 2.0
315 2.0
316 2.0
317 2.0
318 2.0
319 2.0
320 2.0
321 2.0
322 2.0
323 2.0
324 2.0
325 2.0
326 2.0
327 2.0
328 2.0
329 2.0
330 2.0
331 2.0
332 2.0
333 2.0
334 2.0
335 2.0
336 2.0
337 2.0
338 2.0
339 4.0
340 2.0
341 2.0
342 2.0
343 -2.0
344 2.0
345 -2.0
346 4.0
347 2.0
348 2.0
349 2.0
350 2.0
351 2.0
352 2.0
353 -2.0
354 -2.0
355 -2.0
356 2.0
357 2.0
358 4.0
359 2.0
360 2.0
361 4.0
362 4.0
363 4.0
364 2.0
365 2.0
366 2.0
367 2.0
368 2.0
369 -2.0
370 -2.0
371 -2.0
372 4.0
373 2.0
374 4.0
375 4.0
376 4.0
377 4.0
378 2.0
379 4.0
380 2.0
381 4.0
382 2.0
383 2.0
384 -4.0
385 4.0
386 4.0
387 2.0
388 2.0
389 2.0
390 2.0
391 4.0
392 4.0
393 2.0
394 2.0
395 4.0
396 4.0
397 4.0
398 2.0
399 4.0
400 2.0
401 2.0
402 -2.0
403 -4.0
404 4.0
405 -2.0
406 2.0
407 2.0
408 2.0
409 4.0
410 2.0
411 2.0
412 4.0
413 2.0
414 2.0
415 4.0
416 4.0
417 2.0
418 4.0
419 2.0
420 2.0
421 -2.0
422 4.0
423 2.0
424 -2.0
425 2.0
426 -4.0
427 4.0
428 2.0
429 4.0
430 -2.0
431 2.0
432 2.0
433 2.0
434 2.0
435 -2.0
436 2.0
437 2.0
438 4.0
439 4.0
440 4.0
441 4.0
442 2.0
443 -2.0
444 -2.0
445 2.0
446 -2.0
447 2.0
448 2.0
449 -4.0
450 -2.0
451 2.0
452 4.0
453 4.0
454 2.0
455 4.0
456 2.0
457 2.0
458 2.0
459 -2.0
460 4.0
461 2.0
462 4.0
463 4.0
464 4.0
465 -2.0
466 4.0
467 2.0
468 4.0
469 4.0
470 2.0
471 2.0
472 2.0
473 -2.0
474 4.0
475 -2.0
476 2.0
477 2.0
478 -2.0
479 2.0
480 2.0
481 -2.0
482 4.0
483 4.0
484 2.0
485 2.0
486 2.0
487 2.0
488 -2.0
489 4.0
490 2.0
491 4.0
492 4.0
493 -2.0
494 2.0
495 4.0
496 4.0
497 2.0
498 2.0
499 4.0
500 -2.0
501 -2.0
502 2.0
503 2.0
504 2.0
505 4.0
506 2.0
507 4.0
508 -2.0
509 4.0
510 2.0
511 2.0
512 2.0
513 2.0
514 4.0
515 2.0
516 2.0
517 -2.0
518 -2.0
519 4.0
520 4.0
521 2.0
522 4.0
523 4.0
524 -2.0
525 2.0
526 4.0
527 4.0
528 2.0
529 2.0
530 2.0
531 4.0
532 -2.0
533 -2.0
534 -4.0
535 4.0
536 2.0
537 2.0
538 4.0
539 2.0
540 -2.0
541 2.0
542 2.0
543 2.0
544 2.0
545 2.0
546 -2.0
547 2.0
548 2.0
549 -2.0
550 -2.0
551 4.0
552 4.0
553 4.0
554 4.0
555 4.0
556 4.0
557 -2.0
558 2.0
559 4.0
560 4.0
561 2.0
562 2.0
563 2.0
564 4.0
565 -2.0
566 -2.0
567 -4.0
568 4.0
569 2.0
570 2.0
571 2.0
572 4.0
573 2.0
574 2.0
575 4.0
576 2.0
577 4.0
578 -2.0
579 2.0
580 2.0
581 2.0
582 4.0
583 -2.0
584 2.0
585 2.0
586 2.0
587 -2.0
588 -4.0
589 4.0
590 4.0
591 4.0
592 4.0
593 2.0
594 4.0
595 -2.0
596 2.0
597 4.0
598 4.0
599 2.0
600 4.0
601 -2.0
602 -2.0
603 2.0
604 -4.0
605 4.0
606 -2.0
607 2.0
608 2.0
609 2.0
610 4.0
611 -4.0
612 4.0
613 2.0
614 2.0
615 2.0
616 4.0
617 -2.0
618 2.0
619 2.0
620 2.0
621 2.0
622 2.0
623 -2.0
624 -4.0
625 2.0
626 4.0
627 4.0
628 2.0
629 4.0
630 4.0
631 4.0
632 4.0
633 2.0
634 4.0
635 4.0
636 2.0
637 4.0
638 -2.0
639 -2.0
640 2.0
641 -4.0
642 4.0
643 -2.0
644 2.0
645 4.0
646 2.0
647 -2.0
648 4.0
649 -4.0
650 -2.0
651 2.0
652 2.0
653 4.0
654 -2.0
655 -2.0
656 4.0
657 2.0
658 2.0
659 2.0
660 2.0
661 -2.0
662 -4.0
663 2.0
664 -2.0
665 4.0
666 2.0
667 2.0
668 2.0
669 4.0
670 2.0
671 2.0
672 4.0
673 2.0
674 4.0
675 4.0
676 4.0
677 2.0
678 2.0
679 -4.0
680 4.0
681 -2.0
682 2.0
683 -2.0
684 2.0
685 -4.0
686 4.0
687 2.0
688 -2.0
689 2.0
690 4.0
691 2.0
692 2.0
693 -2.0
694 -4.0
695 4.0
696 -2.0
697 -4.0
698 2.0
699 4.0
700 -2.0
701 2.0
702 4.0
703 -2.0
704 2.0
705 2.0
706 2.0
707 -2.0
708 2.0
709 -4.0
710 2.0
711 -4.0
712 4.0
713 2.0
714 2.0
715 2.0
716 4.0
717 4.0
718 4.0
719 4.0
720 4.0
721 2.0
722 -2.0
723 4.0
724 2.0
725 2.0
726 4.0
727 2.0
728 -2.0
729 4.0
730 -2.0
731 2.0
732 4.0
733 -4.0
734 4.0
735 2.0
736 -2.0
737 4.0
738 4.0
739 4.0
740 -2.0
741 4.0
742 -2.0
743 -4.0
744 4.0
745 -2.0
746 -4.0
747 4.0
748 4.0
749 2.0
750 2.0
751 2.0
752 4.0
753 -2.0
754 4.0
755 -2.0
756 2.0
757 -2.0
758 2.0
759 -2.0
760 2.0
761 -2.0
762 2.0
763 2.0
764 -4.0
765 4.0
766 2.0
767 2.0
768 2.0
769 2.0
770 4.0
771 4.0
772 -2.0
773 4.0
774 2.0
775 -2.0
776 4.0
777 2.0
778 2.0
779 4.0
780 -2.0
0.0 # objective constant
1.79769313486232E+308 # value for infinity
0.0 # default variable primal value in starting point
0 # number of non-default variable primal values in starting point
0.0 # default variable bound dual value in starting point
0 # number of non-default variable bound dual values in starting point
0 # number of non-default variable names
0 # number of non-default constraint names
